c FILE: i160-045

c SOURCE: From steinlib

c DESCRIPTION: Steinlib instance with 160 nodes and 2544 edges.

p edge 160 2544
e 1 4
e 1 7
e 1 12
e 1 24
e 1 25
e 1 31
e 1 37
e 1 47
e 1 53
e 1 57
e 1 66
e 1 74
e 1 77
e 1 89
e 1 101
e 1 106
e 1 111
e 1 113
e 1 117
e 1 118
e 1 119
e 1 123
e 1 129
e 1 137
e 1 140
e 1 142
e 1 154
e 2 10
e 2 16
e 2 25
e 2 34
e 2 39
e 2 41
e 2 43
e 2 45
e 2 46
e 2 50
e 2 55
e 2 57
e 2 59
e 2 61
e 2 63
e 2 64
e 2 67
e 2 71
e 2 82
e 2 92
e 2 99
e 2 104
e 2 108
e 2 112
e 2 117
e 2 124
e 2 128
e 2 133
e 2 139
e 2 141
e 2 145
e 2 146
e 2 147
e 2 150
e 2 154
e 2 158
e 3 8
e 3 14
e 3 24
e 3 31
e 3 35
e 3 59
e 3 63
e 3 65
e 3 77
e 3 92
e 3 94
e 3 108
e 3 115
e 3 120
e 3 121
e 3 127
e 3 129
e 3 140
e 3 144
e 3 145
e 3 146
e 3 151
e 3 153
e 3 154
e 3 155
e 3 157
e 3 158
e 4 11
e 4 13
e 4 15
e 4 17
e 4 21
e 4 28
e 4 30
e 4 36
e 4 38
e 4 43
e 4 48
e 4 52
e 4 54
e 4 61
e 4 68
e 4 69
e 4 82
e 4 85
e 4 89
e 4 100
e 4 106
e 4 108
e 4 146
e 4 148
e 4 149
e 4 151
e 4 160
e 5 8
e 5 21
e 5 32
e 5 54
e 5 64
e 5 66
e 5 70
e 5 71
e 5 72
e 5 75
e 5 78
e 5 94
e 5 100
e 5 101
e 5 109
e 5 114
e 5 115
e 5 119
e 5 126
e 5 130
e 5 141
e 5 144
e 5 155
e 6 12
e 6 20
e 6 23
e 6 34
e 6 40
e 6 46
e 6 48
e 6 53
e 6 57
e 6 60
e 6 68
e 6 69
e 6 73
e 6 75
e 6 78
e 6 83
e 6 84
e 6 86
e 6 87
e 6 91
e 6 94
e 6 96
e 6 103
e 6 105
e 6 111
e 6 119
e 6 121
e 6 126
e 6 132
e 6 150
e 6 157
e 7 9
e 7 21
e 7 24
e 7 28
e 7 35
e 7 37
e 7 40
e 7 43
e 7 47
e 7 48
e 7 56
e 7 57
e 7 69
e 7 70
e 7 73
e 7 74
e 7 76
e 7 78
e 7 99
e 7 103
e 7 108
e 7 115
e 7 117
e 7 120
e 7 123
e 7 134
e 7 137
e 7 140
e 7 143
e 7 155
e 7 160
e 8 18
e 8 20
e 8 24
e 8 26
e 8 37
e 8 49
e 8 58
e 8 83
e 8 87
e 8 91
e 8 92
e 8 93
e 8 97
e 8 104
e 8 107
e 8 124
e 8 126
e 8 130
e 8 131
e 8 132
e 8 135
e 8 136
e 8 137
e 8 138
e 8 159
e 9 10
e 9 20
e 9 21
e 9 37
e 9 48
e 9 56
e 9 59
e 9 62
e 9 63
e 9 66
e 9 73
e 9 80
e 9 84
e 9 85
e 9 95
e 9 96
e 9 119
e 9 120
e 9 129
e 9 130
e 9 131
e 9 136
e 9 145
e 9 148
e 9 149
e 9 150
e 9 152
e 9 159
e 10 13
e 10 16
e 10 21
e 10 27
e 10 28
e 10 31
e 10 32
e 10 36
e 10 39
e 10 44
e 10 55
e 10 56
e 10 60
e 10 61
e 10 63
e 10 66
e 10 70
e 10 76
e 10 78
e 10 80
e 10 81
e 10 82
e 10 85
e 10 93
e 10 96
e 10 101
e 10 102
e 10 105
e 10 109
e 10 121
e 10 122
e 10 133
e 10 139
e 10 141
e 10 142
e 10 143
e 10 145
e 10 146
e 10 152
e 10 158
e 11 17
e 11 20
e 11 26
e 11 27
e 11 31
e 11 37
e 11 42
e 11 44
e 11 47
e 11 57
e 11 60
e 11 61
e 11 62
e 11 64
e 11 66
e 11 69
e 11 76
e 11 77
e 11 81
e 11 84
e 11 94
e 11 99
e 11 101
e 11 106
e 11 124
e 11 127
e 11 129
e 11 141
e 11 146
e 11 149
e 11 156
e 12 17
e 12 18
e 12 26
e 12 37
e 12 52
e 12 56
e 12 59
e 12 73
e 12 78
e 12 80
e 12 81
e 12 91
e 12 105
e 12 107
e 12 109
e 12 116
e 12 117
e 12 128
e 12 130
e 12 132
e 12 133
e 12 140
e 12 141
e 12 142
e 12 149
e 12 152
e 13 17
e 13 19
e 13 27
e 13 30
e 13 38
e 13 42
e 13 51
e 13 52
e 13 69
e 13 70
e 13 71
e 13 72
e 13 73
e 13 75
e 13 78
e 13 80
e 13 82
e 13 87
e 13 88
e 13 92
e 13 95
e 13 98
e 13 103
e 13 105
e 13 107
e 13 124
e 13 125
e 13 140
e 13 142
e 13 143
e 13 147
e 13 148
e 13 153
e 13 155
e 13 156
e 13 158
e 13 160
e 14 19
e 14 22
e 14 33
e 14 40
e 14 41
e 14 44
e 14 50
e 14 55
e 14 56
e 14 61
e 14 64
e 14 65
e 14 73
e 14 78
e 14 87
e 14 98
e 14 107
e 14 110
e 14 111
e 14 117
e 14 126
e 14 132
e 14 133
e 14 137
e 14 139
e 14 142
e 14 147
e 14 150
e 14 152
e 14 155
e 14 158
e 15 16
e 15 17
e 15 19
e 15 22
e 15 33
e 15 35
e 15 38
e 15 44
e 15 46
e 15 49
e 15 55
e 15 56
e 15 57
e 15 61
e 15 74
e 15 83
e 15 85
e 15 97
e 15 98
e 15 99
e 15 103
e 15 108
e 15 111
e 15 118
e 15 120
e 15 129
e 15 137
e 15 139
e 15 151
e 15 153
e 15 154
e 15 160
e 16 17
e 16 22
e 16 46
e 16 71
e 16 76
e 16 79
e 16 80
e 16 89
e 16 94
e 16 96
e 16 101
e 16 102
e 16 110
e 16 120
e 16 122
e 16 125
e 16 128
e 16 132
e 16 142
e 16 143
e 16 151
e 16 154
e 16 157
e 17 23
e 17 24
e 17 34
e 17 36
e 17 39
e 17 43
e 17 44
e 17 47
e 17 57
e 17 72
e 17 73
e 17 77
e 17 78
e 17 84
e 17 85
e 17 93
e 17 94
e 17 107
e 17 118
e 17 123
e 17 127
e 17 132
e 17 139
e 17 140
e 17 144
e 17 145
e 17 147
e 17 148
e 17 152
e 17 154
e 17 157
e 18 20
e 18 24
e 18 35
e 18 58
e 18 66
e 18 72
e 18 77
e 18 82
e 18 83
e 18 87
e 18 91
e 18 92
e 18 98
e 18 100
e 18 101
e 18 111
e 18 119
e 18 120
e 18 135
e 18 142
e 18 145
e 18 158
e 19 26
e 19 28
e 19 38
e 19 40
e 19 45
e 19 48
e 19 50
e 19 55
e 19 59
e 19 61
e 19 78
e 19 79
e 19 83
e 19 90
e 19 95
e 19 107
e 19 111
e 19 114
e 19 123
e 19 127
e 19 132
e 19 137
e 19 140
e 19 148
e 19 149
e 19 151
e 19 154
e 20 21
e 20 31
e 20 32
e 20 33
e 20 51
e 20 52
e 20 60
e 20 62
e 20 65
e 20 66
e 20 69
e 20 78
e 20 82
e 20 83
e 20 92
e 20 94
e 20 110
e 20 114
e 20 121
e 20 123
e 20 125
e 20 133
e 20 139
e 20 148
e 20 149
e 20 150
e 20 156
e 20 158
e 21 42
e 21 43
e 21 44
e 21 58
e 21 62
e 21 68
e 21 72
e 21 82
e 21 89
e 21 91
e 21 96
e 21 99
e 21 101
e 21 102
e 21 113
e 21 115
e 21 123
e 21 125
e 21 137
e 21 138
e 21 144
e 21 157
e 22 24
e 22 26
e 22 28
e 22 33
e 22 39
e 22 51
e 22 52
e 22 53
e 22 55
e 22 57
e 22 58
e 22 68
e 22 70
e 22 73
e 22 74
e 22 81
e 22 83
e 22 85
e 22 87
e 22 98
e 22 103
e 22 113
e 22 124
e 22 126
e 22 128
e 22 141
e 22 144
e 22 148
e 22 157
e 22 158
e 22 160
e 23 25
e 23 31
e 23 35
e 23 39
e 23 41
e 23 45
e 23 46
e 23 55
e 23 59
e 23 61
e 23 62
e 23 63
e 23 67
e 23 69
e 23 71
e 23 81
e 23 85
e 23 89
e 23 90
e 23 96
e 23 112
e 23 119
e 23 120
e 23 130
e 23 138
e 23 139
e 23 143
e 23 155
e 23 157
e 24 25
e 24 36
e 24 45
e 24 48
e 24 49
e 24 50
e 24 51
e 24 65
e 24 66
e 24 70
e 24 75
e 24 93
e 24 95
e 24 98
e 24 99
e 24 106
e 24 107
e 24 113
e 24 136
e 24 137
e 24 138
e 24 142
e 24 148
e 24 153
e 24 154
e 24 158
e 24 160
e 25 27
e 25 33
e 25 35
e 25 41
e 25 43
e 25 44
e 25 52
e 25 59
e 25 60
e 25 64
e 25 65
e 25 68
e 25 70
e 25 75
e 25 77
e 25 80
e 25 82
e 25 98
e 25 102
e 25 104
e 25 105
e 25 106
e 25 110
e 25 114
e 25 122
e 25 123
e 25 124
e 25 128
e 25 131
e 25 133
e 25 145
e 25 148
e 25 150
e 26 28
e 26 29
e 26 38
e 26 43
e 26 48
e 26 51
e 26 52
e 26 56
e 26 58
e 26 59
e 26 67
e 26 82
e 26 86
e 26 89
e 26 109
e 26 116
e 26 117
e 26 130
e 26 133
e 26 141
e 26 151
e 26 153
e 26 154
e 27 35
e 27 37
e 27 39
e 27 41
e 27 51
e 27 60
e 27 65
e 27 71
e 27 75
e 27 76
e 27 78
e 27 82
e 27 94
e 27 96
e 27 112
e 27 116
e 27 130
e 27 131
e 27 137
e 27 143
e 27 149
e 27 151
e 27 152
e 27 154
e 27 157
e 27 160
e 28 29
e 28 35
e 28 42
e 28 50
e 28 51
e 28 55
e 28 56
e 28 62
e 28 63
e 28 76
e 28 81
e 28 84
e 28 85
e 28 86
e 28 89
e 28 94
e 28 105
e 28 106
e 28 113
e 28 126
e 28 127
e 28 132
e 28 134
e 28 135
e 28 139
e 28 140
e 28 151
e 28 152
e 28 154
e 28 160
e 29 33
e 29 36
e 29 37
e 29 39
e 29 56
e 29 60
e 29 64
e 29 70
e 29 73
e 29 75
e 29 79
e 29 86
e 29 87
e 29 88
e 29 96
e 29 100
e 29 111
e 29 114
e 29 116
e 29 120
e 29 121
e 29 123
e 29 125
e 29 127
e 29 131
e 29 136
e 29 138
e 29 140
e 29 144
e 29 148
e 29 158
e 30 38
e 30 40
e 30 47
e 30 59
e 30 62
e 30 66
e 30 72
e 30 73
e 30 75
e 30 84
e 30 100
e 30 107
e 30 108
e 30 111
e 30 115
e 30 117
e 30 122
e 30 126
e 30 127
e 30 129
e 30 137
e 30 141
e 30 148
e 30 152
e 30 154
e 30 160
e 31 43
e 31 44
e 31 59
e 31 61
e 31 70
e 31 96
e 31 97
e 31 98
e 31 106
e 31 111
e 31 115
e 31 117
e 31 124
e 31 133
e 31 135
e 31 138
e 31 140
e 31 147
e 31 149
e 31 151
e 31 159
e 32 35
e 32 37
e 32 39
e 32 45
e 32 48
e 32 63
e 32 68
e 32 69
e 32 77
e 32 84
e 32 86
e 32 87
e 32 89
e 32 90
e 32 92
e 32 93
e 32 101
e 32 106
e 32 115
e 32 124
e 32 129
e 32 139
e 32 141
e 32 143
e 32 152
e 32 153
e 32 158
e 33 35
e 33 36
e 33 39
e 33 47
e 33 61
e 33 71
e 33 77
e 33 78
e 33 86
e 33 87
e 33 88
e 33 95
e 33 96
e 33 98
e 33 116
e 33 133
e 33 135
e 33 148
e 33 155
e 34 38
e 34 40
e 34 42
e 34 53
e 34 59
e 34 66
e 34 69
e 34 77
e 34 79
e 34 80
e 34 81
e 34 83
e 34 85
e 34 91
e 34 93
e 34 95
e 34 96
e 34 110
e 34 113
e 34 115
e 34 116
e 34 135
e 34 150
e 34 154
e 34 155
e 35 36
e 35 37
e 35 46
e 35 47
e 35 50
e 35 55
e 35 61
e 35 70
e 35 81
e 35 88
e 35 95
e 35 97
e 35 98
e 35 101
e 35 102
e 35 104
e 35 105
e 35 109
e 35 115
e 35 121
e 35 130
e 35 133
e 35 141
e 35 143
e 35 151
e 36 41
e 36 49
e 36 52
e 36 58
e 36 62
e 36 72
e 36 73
e 36 74
e 36 75
e 36 82
e 36 87
e 36 93
e 36 99
e 36 100
e 36 106
e 36 114
e 36 121
e 36 125
e 36 128
e 36 129
e 36 130
e 36 131
e 36 137
e 36 144
e 36 150
e 37 43
e 37 44
e 37 45
e 37 46
e 37 59
e 37 60
e 37 62
e 37 66
e 37 67
e 37 78
e 37 91
e 37 98
e 37 102
e 37 107
e 37 108
e 37 119
e 37 120
e 37 124
e 37 126
e 37 130
e 37 134
e 37 145
e 37 148
e 37 150
e 37 151
e 37 157
e 37 159
e 38 41
e 38 42
e 38 47
e 38 50
e 38 51
e 38 62
e 38 67
e 38 68
e 38 71
e 38 116
e 38 128
e 38 129
e 38 131
e 38 132
e 38 133
e 38 135
e 38 139
e 38 150
e 38 156
e 39 43
e 39 47
e 39 48
e 39 56
e 39 57
e 39 64
e 39 74
e 39 82
e 39 83
e 39 89
e 39 91
e 39 97
e 39 103
e 39 107
e 39 109
e 39 117
e 39 124
e 39 134
e 39 136
e 39 140
e 39 144
e 39 149
e 39 154
e 40 55
e 40 57
e 40 65
e 40 66
e 40 69
e 40 71
e 40 80
e 40 83
e 40 90
e 40 101
e 40 102
e 40 107
e 40 112
e 40 124
e 40 141
e 40 145
e 40 156
e 40 160
e 41 54
e 41 56
e 41 58
e 41 69
e 41 70
e 41 75
e 41 76
e 41 83
e 41 84
e 41 88
e 41 92
e 41 93
e 41 94
e 41 98
e 41 102
e 41 105
e 41 106
e 41 141
e 41 143
e 41 146
e 41 150
e 41 154
e 42 43
e 42 48
e 42 56
e 42 60
e 42 66
e 42 73
e 42 74
e 42 78
e 42 80
e 42 82
e 42 83
e 42 85
e 42 88
e 42 90
e 42 96
e 42 122
e 42 125
e 42 130
e 42 132
e 42 143
e 42 146
e 43 46
e 43 55
e 43 57
e 43 63
e 43 66
e 43 74
e 43 81
e 43 97
e 43 98
e 43 104
e 43 105
e 43 122
e 43 126
e 43 130
e 43 131
e 43 132
e 43 142
e 43 145
e 43 148
e 43 149
e 43 155
e 43 158
e 44 47
e 44 49
e 44 59
e 44 60
e 44 66
e 44 84
e 44 85
e 44 94
e 44 97
e 44 99
e 44 100
e 44 104
e 44 107
e 44 117
e 44 122
e 44 127
e 44 128
e 44 133
e 44 144
e 44 147
e 44 152
e 44 153
e 44 155
e 44 156
e 44 158
e 44 160
e 45 47
e 45 49
e 45 60
e 45 64
e 45 70
e 45 71
e 45 76
e 45 81
e 45 99
e 45 101
e 45 102
e 45 117
e 45 121
e 45 126
e 45 127
e 45 135
e 45 138
e 45 139
e 45 140
e 45 143
e 45 146
e 45 149
e 45 150
e 45 154
e 45 157
e 45 158
e 46 53
e 46 61
e 46 67
e 46 70
e 46 77
e 46 80
e 46 82
e 46 92
e 46 99
e 46 100
e 46 102
e 46 106
e 46 108
e 46 121
e 46 122
e 46 124
e 46 126
e 46 127
e 46 128
e 46 129
e 46 131
e 46 132
e 46 137
e 46 143
e 46 159
e 47 53
e 47 55
e 47 56
e 47 58
e 47 65
e 47 66
e 47 69
e 47 73
e 47 77
e 47 80
e 47 91
e 47 99
e 47 101
e 47 112
e 47 113
e 47 117
e 47 122
e 47 125
e 47 127
e 47 129
e 47 131
e 47 139
e 47 142
e 47 146
e 47 147
e 47 149
e 47 155
e 48 51
e 48 55
e 48 61
e 48 64
e 48 66
e 48 69
e 48 71
e 48 81
e 48 86
e 48 90
e 48 92
e 48 97
e 48 98
e 48 99
e 48 103
e 48 119
e 48 120
e 48 122
e 48 126
e 48 128
e 48 133
e 48 139
e 48 142
e 48 154
e 49 50
e 49 54
e 49 57
e 49 58
e 49 59
e 49 67
e 49 69
e 49 70
e 49 78
e 49 79
e 49 81
e 49 84
e 49 88
e 49 89
e 49 90
e 49 94
e 49 95
e 49 97
e 49 109
e 49 112
e 49 115
e 49 118
e 49 119
e 49 125
e 49 129
e 49 134
e 49 135
e 49 140
e 49 148
e 50 55
e 50 57
e 50 63
e 50 81
e 50 87
e 50 89
e 50 92
e 50 93
e 50 107
e 50 113
e 50 118
e 50 119
e 50 121
e 50 123
e 50 125
e 50 126
e 50 129
e 50 132
e 50 139
e 50 144
e 51 52
e 51 53
e 51 72
e 51 76
e 51 77
e 51 78
e 51 81
e 51 83
e 51 84
e 51 85
e 51 87
e 51 89
e 51 94
e 51 109
e 51 112
e 51 116
e 51 118
e 51 119
e 51 127
e 51 141
e 51 142
e 52 54
e 52 55
e 52 64
e 52 66
e 52 76
e 52 79
e 52 83
e 52 85
e 52 89
e 52 114
e 52 118
e 52 120
e 52 139
e 52 145
e 52 147
e 52 149
e 52 157
e 53 55
e 53 56
e 53 72
e 53 80
e 53 85
e 53 94
e 53 97
e 53 99
e 53 103
e 53 115
e 53 122
e 53 126
e 53 134
e 53 141
e 53 153
e 53 159
e 54 61
e 54 66
e 54 71
e 54 72
e 54 76
e 54 77
e 54 92
e 54 93
e 54 94
e 54 95
e 54 107
e 54 114
e 54 117
e 54 120
e 54 126
e 54 127
e 54 128
e 54 136
e 54 137
e 54 145
e 54 149
e 54 153
e 54 154
e 55 58
e 55 59
e 55 65
e 55 81
e 55 87
e 55 96
e 55 102
e 55 107
e 55 109
e 55 112
e 55 124
e 55 133
e 55 147
e 55 150
e 55 158
e 56 58
e 56 62
e 56 67
e 56 68
e 56 102
e 56 106
e 56 107
e 56 109
e 56 132
e 56 143
e 56 146
e 56 147
e 56 149
e 56 151
e 56 157
e 57 61
e 57 65
e 57 67
e 57 69
e 57 74
e 57 80
e 57 92
e 57 98
e 57 100
e 57 106
e 57 111
e 57 114
e 57 119
e 57 120
e 57 130
e 57 139
e 57 154
e 58 64
e 58 68
e 58 70
e 58 73
e 58 75
e 58 79
e 58 80
e 58 96
e 58 99
e 58 103
e 58 106
e 58 112
e 58 113
e 58 116
e 58 122
e 58 124
e 58 127
e 58 128
e 58 136
e 58 143
e 58 156
e 58 158
e 59 61
e 59 62
e 59 66
e 59 70
e 59 73
e 59 74
e 59 75
e 59 85
e 59 86
e 59 88
e 59 94
e 59 106
e 59 112
e 59 119
e 59 132
e 59 134
e 59 135
e 59 136
e 59 138
e 59 146
e 59 147
e 60 67
e 60 68
e 60 71
e 60 72
e 60 74
e 60 82
e 60 83
e 60 92
e 60 103
e 60 104
e 60 113
e 60 115
e 60 123
e 60 124
e 60 128
e 60 138
e 60 139
e 60 149
e 60 153
e 60 155
e 61 66
e 61 76
e 61 77
e 61 80
e 61 81
e 61 82
e 61 83
e 61 84
e 61 86
e 61 87
e 61 91
e 61 95
e 61 96
e 61 98
e 61 99
e 61 110
e 61 113
e 61 115
e 61 123
e 61 126
e 61 128
e 61 147
e 61 153
e 62 65
e 62 66
e 62 68
e 62 78
e 62 81
e 62 96
e 62 99
e 62 104
e 62 107
e 62 108
e 62 110
e 62 111
e 62 118
e 62 127
e 62 134
e 62 140
e 62 148
e 62 153
e 62 158
e 62 159
e 63 64
e 63 65
e 63 66
e 63 69
e 63 74
e 63 75
e 63 79
e 63 81
e 63 82
e 63 85
e 63 98
e 63 101
e 63 106
e 63 114
e 63 116
e 63 118
e 63 135
e 63 142
e 63 146
e 64 83
e 64 87
e 64 94
e 64 98
e 64 109
e 64 120
e 64 121
e 64 129
e 64 132
e 64 133
e 64 136
e 64 143
e 64 144
e 64 153
e 64 156
e 65 76
e 65 83
e 65 90
e 65 95
e 65 97
e 65 100
e 65 111
e 65 112
e 65 116
e 65 122
e 65 123
e 65 126
e 65 128
e 65 131
e 65 135
e 65 147
e 65 153
e 65 158
e 66 72
e 66 74
e 66 80
e 66 82
e 66 94
e 66 97
e 66 107
e 66 108
e 66 109
e 66 110
e 66 111
e 66 113
e 66 122
e 66 136
e 66 142
e 67 90
e 67 95
e 67 96
e 67 97
e 67 101
e 67 106
e 67 113
e 67 114
e 67 115
e 67 117
e 67 119
e 67 121
e 67 126
e 67 138
e 67 139
e 67 145
e 67 146
e 67 148
e 67 151
e 67 155
e 67 159
e 68 70
e 68 75
e 68 81
e 68 89
e 68 90
e 68 92
e 68 94
e 68 108
e 68 119
e 68 134
e 68 139
e 68 148
e 68 152
e 68 156
e 68 160
e 69 72
e 69 82
e 69 84
e 69 89
e 69 92
e 69 98
e 69 99
e 69 111
e 69 115
e 69 124
e 69 126
e 69 130
e 69 136
e 69 138
e 69 140
e 69 146
e 69 150
e 70 73
e 70 75
e 70 79
e 70 80
e 70 84
e 70 86
e 70 90
e 70 96
e 70 110
e 70 111
e 70 112
e 70 116
e 70 119
e 70 124
e 70 128
e 70 136
e 70 150
e 70 152
e 71 75
e 71 79
e 71 81
e 71 84
e 71 93
e 71 97
e 71 102
e 71 103
e 71 110
e 71 119
e 71 121
e 71 127
e 71 145
e 71 148
e 71 154
e 71 155
e 71 157
e 72 73
e 72 77
e 72 79
e 72 94
e 72 106
e 72 109
e 72 111
e 72 119
e 72 120
e 72 122
e 72 126
e 72 131
e 72 137
e 72 142
e 72 145
e 72 147
e 72 149
e 72 155
e 73 83
e 73 84
e 73 86
e 73 87
e 73 89
e 73 94
e 73 96
e 73 99
e 73 112
e 73 113
e 73 121
e 73 138
e 73 142
e 73 151
e 73 153
e 74 77
e 74 83
e 74 86
e 74 90
e 74 91
e 74 99
e 74 101
e 74 104
e 74 105
e 74 118
e 74 127
e 74 136
e 74 137
e 74 139
e 74 142
e 74 147
e 74 150
e 74 154
e 74 157
e 74 158
e 74 159
e 74 160
e 75 80
e 75 85
e 75 97
e 75 101
e 75 106
e 75 114
e 75 117
e 75 120
e 75 121
e 75 124
e 75 128
e 75 129
e 75 130
e 75 135
e 75 137
e 75 141
e 75 142
e 75 143
e 75 144
e 75 152
e 75 157
e 75 159
e 76 81
e 76 93
e 76 94
e 76 99
e 76 100
e 76 104
e 76 105
e 76 110
e 76 112
e 76 113
e 76 115
e 76 117
e 76 120
e 76 123
e 76 126
e 76 129
e 76 134
e 76 149
e 76 151
e 76 152
e 76 159
e 76 160
e 77 80
e 77 83
e 77 87
e 77 94
e 77 100
e 77 103
e 77 115
e 77 133
e 77 135
e 77 143
e 77 145
e 77 146
e 77 147
e 77 148
e 77 154
e 77 158
e 77 160
e 78 80
e 78 85
e 78 89
e 78 91
e 78 95
e 78 99
e 78 100
e 78 103
e 78 106
e 78 107
e 78 109
e 78 117
e 78 124
e 78 125
e 78 134
e 78 141
e 78 147
e 78 148
e 78 149
e 78 150
e 78 159
e 79 85
e 79 94
e 79 101
e 79 105
e 79 108
e 79 115
e 79 117
e 79 127
e 79 130
e 79 132
e 79 133
e 79 136
e 79 152
e 80 83
e 80 105
e 80 112
e 80 118
e 80 123
e 80 125
e 80 129
e 80 130
e 80 133
e 80 137
e 80 138
e 80 146
e 80 147
e 80 156
e 81 89
e 81 92
e 81 93
e 81 101
e 81 106
e 81 125
e 81 126
e 81 127
e 81 129
e 81 131
e 81 132
e 81 143
e 81 144
e 81 145
e 81 148
e 81 154
e 81 155
e 82 104
e 82 105
e 82 115
e 82 116
e 82 121
e 82 131
e 82 134
e 82 135
e 82 137
e 82 139
e 82 140
e 82 141
e 82 145
e 82 151
e 82 155
e 82 160
e 83 87
e 83 92
e 83 96
e 83 98
e 83 106
e 83 111
e 83 114
e 83 126
e 83 129
e 83 135
e 83 144
e 83 152
e 83 160
e 84 86
e 84 89
e 84 90
e 84 104
e 84 106
e 84 107
e 84 120
e 84 129
e 84 132
e 84 144
e 84 146
e 85 89
e 85 93
e 85 105
e 85 113
e 85 114
e 85 131
e 85 133
e 85 138
e 85 139
e 86 92
e 86 95
e 86 106
e 86 112
e 86 117
e 86 120
e 86 121
e 86 122
e 86 123
e 86 126
e 86 132
e 86 137
e 86 141
e 86 148
e 86 157
e 87 89
e 87 93
e 87 98
e 87 99
e 87 100
e 87 105
e 87 112
e 87 137
e 87 138
e 87 141
e 87 145
e 87 146
e 87 147
e 87 152
e 87 153
e 87 160
e 88 91
e 88 92
e 88 97
e 88 103
e 88 115
e 88 116
e 88 117
e 88 119
e 88 131
e 88 133
e 88 135
e 88 136
e 88 137
e 88 145
e 88 151
e 88 152
e 88 158
e 89 93
e 89 97
e 89 98
e 89 99
e 89 100
e 89 101
e 89 105
e 89 107
e 89 113
e 89 118
e 89 125
e 89 128
e 89 136
e 89 137
e 89 139
e 89 140
e 89 142
e 89 144
e 90 91
e 90 99
e 90 102
e 90 105
e 90 107
e 90 108
e 90 110
e 90 115
e 90 119
e 90 123
e 90 128
e 90 129
e 90 138
e 90 142
e 90 160
e 91 94
e 91 95
e 91 101
e 91 108
e 91 119
e 91 123
e 91 127
e 91 128
e 91 129
e 91 130
e 91 132
e 91 137
e 91 140
e 91 141
e 91 144
e 91 145
e 91 148
e 91 159
e 92 103
e 92 111
e 92 120
e 92 121
e 92 135
e 92 145
e 92 154
e 92 157
e 92 159
e 93 104
e 93 105
e 93 114
e 93 116
e 93 121
e 93 123
e 93 138
e 93 141
e 93 143
e 93 147
e 93 149
e 93 155
e 94 97
e 94 98
e 94 105
e 94 106
e 94 108
e 94 109
e 94 113
e 94 118
e 94 119
e 94 123
e 94 129
e 94 131
e 94 132
e 94 145
e 94 151
e 94 152
e 94 158
e 95 97
e 95 103
e 95 107
e 95 111
e 95 113
e 95 117
e 95 125
e 95 130
e 95 137
e 95 140
e 95 142
e 95 146
e 95 156
e 95 159
e 96 99
e 96 100
e 96 110
e 96 115
e 96 118
e 96 121
e 96 123
e 96 125
e 96 127
e 96 128
e 96 131
e 96 132
e 96 133
e 96 140
e 96 143
e 96 147
e 96 150
e 96 160
e 97 102
e 97 110
e 97 114
e 97 124
e 97 130
e 97 137
e 97 138
e 97 139
e 97 140
e 97 141
e 97 144
e 97 157
e 98 101
e 98 105
e 98 106
e 98 108
e 98 115
e 98 128
e 98 133
e 98 137
e 98 138
e 98 141
e 98 155
e 99 103
e 99 104
e 99 112
e 99 113
e 99 114
e 99 116
e 99 120
e 99 122
e 99 138
e 99 147
e 99 148
e 99 149
e 99 150
e 99 155
e 99 160
e 100 104
e 100 105
e 100 106
e 100 108
e 100 113
e 100 123
e 100 128
e 100 132
e 100 138
e 100 145
e 100 148
e 101 107
e 101 116
e 101 118
e 101 125
e 101 131
e 101 139
e 101 141
e 101 145
e 101 150
e 102 114
e 102 119
e 102 123
e 102 125
e 102 142
e 102 143
e 102 153
e 102 160
e 103 107
e 103 115
e 103 116
e 103 117
e 103 121
e 103 130
e 103 137
e 103 140
e 103 141
e 103 148
e 103 149
e 103 153
e 103 156
e 104 117
e 104 121
e 104 122
e 104 124
e 104 126
e 104 129
e 104 134
e 104 138
e 104 139
e 104 141
e 104 146
e 104 147
e 104 152
e 104 154
e 104 157
e 105 107
e 105 108
e 105 115
e 105 117
e 105 118
e 105 121
e 105 126
e 105 128
e 105 130
e 105 133
e 105 140
e 105 141
e 105 145
e 105 147
e 105 156
e 105 157
e 105 158
e 106 107
e 106 117
e 106 122
e 106 123
e 106 129
e 106 136
e 106 143
e 106 144
e 106 150
e 106 151
e 106 155
e 107 108
e 107 109
e 107 116
e 107 127
e 107 136
e 107 141
e 107 151
e 107 153
e 108 134
e 108 135
e 108 142
e 108 151
e 108 153
e 108 156
e 109 114
e 109 116
e 109 117
e 109 122
e 109 123
e 109 133
e 109 135
e 109 141
e 109 149
e 109 150
e 109 154
e 110 111
e 110 116
e 110 119
e 110 124
e 110 128
e 110 129
e 110 134
e 110 136
e 110 138
e 110 139
e 110 146
e 110 150
e 110 154
e 111 112
e 111 124
e 111 139
e 111 140
e 111 141
e 111 142
e 111 143
e 111 145
e 111 146
e 111 149
e 111 151
e 111 157
e 112 121
e 112 122
e 112 126
e 112 128
e 112 131
e 112 144
e 112 151
e 112 153
e 112 156
e 112 157
e 112 159
e 113 120
e 113 122
e 113 124
e 113 126
e 113 129
e 113 132
e 113 138
e 113 148
e 113 150
e 113 157
e 114 122
e 114 125
e 114 138
e 114 140
e 114 142
e 114 145
e 114 159
e 115 116
e 115 117
e 115 119
e 115 121
e 115 124
e 115 127
e 115 136
e 115 141
e 115 143
e 115 150
e 115 151
e 115 157
e 116 118
e 116 123
e 116 125
e 116 132
e 116 136
e 116 138
e 116 147
e 117 118
e 117 122
e 117 124
e 117 129
e 117 137
e 117 138
e 117 140
e 117 141
e 117 148
e 117 149
e 117 151
e 117 154
e 118 119
e 118 120
e 118 128
e 118 135
e 118 141
e 118 142
e 118 151
e 119 127
e 119 128
e 119 131
e 119 136
e 119 140
e 119 145
e 119 146
e 119 148
e 120 126
e 120 127
e 120 133
e 120 134
e 120 138
e 120 145
e 120 146
e 120 148
e 121 128
e 121 129
e 121 133
e 121 140
e 121 147
e 121 150
e 121 155
e 122 124
e 122 126
e 122 131
e 122 133
e 122 144
e 122 147
e 122 150
e 122 151
e 122 153
e 122 154
e 122 160
e 123 126
e 123 128
e 123 131
e 123 136
e 123 144
e 123 148
e 123 149
e 123 152
e 123 159
e 124 125
e 124 126
e 124 136
e 124 139
e 124 140
e 124 143
e 124 145
e 124 150
e 124 152
e 124 154
e 124 159
e 125 134
e 125 135
e 125 136
e 125 138
e 125 141
e 125 146
e 125 147
e 125 149
e 126 127
e 126 138
e 126 143
e 126 145
e 126 149
e 126 151
e 127 131
e 127 132
e 127 133
e 127 136
e 127 137
e 127 143
e 127 144
e 127 146
e 127 150
e 127 153
e 128 129
e 128 131
e 128 141
e 128 144
e 128 145
e 128 146
e 128 150
e 128 151
e 128 152
e 128 154
e 129 133
e 129 137
e 129 141
e 129 144
e 129 145
e 129 157
e 129 159
e 130 136
e 130 141
e 130 147
e 130 152
e 130 156
e 130 159
e 130 160
e 131 132
e 131 134
e 131 138
e 131 139
e 131 148
e 131 156
e 131 157
e 132 137
e 132 139
e 132 143
e 132 144
e 132 145
e 132 152
e 132 158
e 132 159
e 133 143
e 133 157
e 133 160
e 134 135
e 134 146
e 134 148
e 134 152
e 134 158
e 134 160
e 135 137
e 135 153
e 136 140
e 136 142
e 136 150
e 136 151
e 136 154
e 136 158
e 136 159
e 137 142
e 137 146
e 137 156
e 137 158
e 138 142
e 138 143
e 138 146
e 138 152
e 138 159
e 139 141
e 139 142
e 139 145
e 139 146
e 139 148
e 139 154
e 140 150
e 140 152
e 140 154
e 140 160
e 141 143
e 141 144
e 141 146
e 141 157
e 142 149
e 142 150
e 142 151
e 143 146
e 143 155
e 143 156
e 143 160
e 144 145
e 144 151
e 144 152
e 145 157
e 146 147
e 146 149
e 146 152
e 147 150
e 147 151
e 147 159
e 148 155
e 148 159
e 149 156
e 149 158
e 150 153
e 150 154
e 151 154
e 152 155
e 152 158
e 152 160
e 153 156
e 154 157
e 154 160
e 155 158
e 158 160
